% Generado automaticamente desde C:/Users/Daniel/OneDrive/Desktop/Universidad/Semestre 6.1/ADA2/Proyecto 2/Polarizacion/Casos de prueba/Tamaño3.txt

n = 50;
m = 3;
ct = 20.0;
maxMovs = 35.0;
mediana = 0.266;

v = [0.239, 0.266, 0.702];
p = [20, 14, 16];
s = [| 20, 0, 0 | 7, 2, 5 | 5, 5, 6 |];
